11107 9084 9477
9355 8057 10902
9787 9298 10089
10226 9730 8611
11354 8195 9955
8862 7796 10971
10260 9651 8981
10135 9801 8299
10754 8181 10487
8838 7699 10995
11378 8292 9931
10087 9844 8033
11142 8895 9779
10143 8453 10693
9660 9637 9513
12166 8292 8508
9934 8918 10385
8947 8569 10695
12224 7982 7803
9230 9717 9498
10708 9594 8409
12240 7697 8641
10724 8693 10176
11742 8909 9247
8771 10110 7880
9070 10056 8514
10778 8278 10463
9673 8323 10777
9713 8533 10678
10507 9070 10009
10103 8243 10792
9436 9955 8820
11359 8518 9946
11816 8314 9380
10799 9523 8721
